p tw 342 684
1 2
1 20
2 3
2 21
3 4
3 22
4 5
4 23
5 6
5 24
6 7
6 25
7 8
7 26
8 9
8 27
9 10
9 28
10 11
10 29
11 12
11 30
12 13
12 31
13 14
13 32
14 15
14 33
15 16
15 34
16 17
16 35
17 18
17 36
18 19
18 37
19 1
19 38
20 21
20 39
21 22
21 40
22 23
22 41
23 24
23 42
24 25
24 43
25 26
25 44
26 27
26 45
27 28
27 46
28 29
28 47
29 30
29 48
30 31
30 49
31 32
31 50
32 33
32 51
33 34
33 52
34 35
34 53
35 36
35 54
36 37
36 55
37 38
37 56
38 20
38 57
39 40
39 58
40 41
40 59
41 42
41 60
42 43
42 61
43 44
43 62
44 45
44 63
45 46
45 64
46 47
46 65
47 48
47 66
48 49
48 67
49 50
49 68
50 51
50 69
51 52
51 70
52 53
52 71
53 54
53 72
54 55
54 73
55 56
55 74
56 57
56 75
57 39
57 76
58 59
58 77
59 60
59 78
60 61
60 79
61 62
61 80
62 63
62 81
63 64
63 82
64 65
64 83
65 66
65 84
66 67
66 85
67 68
67 86
68 69
68 87
69 70
69 88
70 71
70 89
71 72
71 90
72 73
72 91
73 74
73 92
74 75
74 93
75 76
75 94
76 58
76 95
77 78
77 96
78 79
78 97
79 80
79 98
80 81
80 99
81 82
81 100
82 83
82 101
83 84
83 102
84 85
84 103
85 86
85 104
86 87
86 105
87 88
87 106
88 89
88 107
89 90
89 108
90 91
90 109
91 92
91 110
92 93
92 111
93 94
93 112
94 95
94 113
95 77
95 114
96 97
96 115
97 98
97 116
98 99
98 117
99 100
99 118
100 101
100 119
101 102
101 120
102 103
102 121
103 104
103 122
104 105
104 123
105 106
105 124
106 107
106 125
107 108
107 126
108 109
108 127
109 110
109 128
110 111
110 129
111 112
111 130
112 113
112 131
113 114
113 132
114 96
114 133
115 116
115 134
116 117
116 135
117 118
117 136
118 119
118 137
119 120
119 138
120 121
120 139
121 122
121 140
122 123
122 141
123 124
123 142
124 125
124 143
125 126
125 144
126 127
126 145
127 128
127 146
128 129
128 147
129 130
129 148
130 131
130 149
131 132
131 150
132 133
132 151
133 115
133 152
134 135
134 153
135 136
135 154
136 137
136 155
137 138
137 156
138 139
138 157
139 140
139 158
140 141
140 159
141 142
141 160
142 143
142 161
143 144
143 162
144 145
144 163
145 146
145 164
146 147
146 165
147 148
147 166
148 149
148 167
149 150
149 168
150 151
150 169
151 152
151 170
152 134
152 171
153 154
153 172
154 155
154 173
155 156
155 174
156 157
156 175
157 158
157 176
158 159
158 177
159 160
159 178
160 161
160 179
161 162
161 180
162 163
162 181
163 164
163 182
164 165
164 183
165 166
165 184
166 167
166 185
167 168
167 186
168 169
168 187
169 170
169 188
170 171
170 189
171 153
171 190
172 173
172 191
173 174
173 192
174 175
174 193
175 176
175 194
176 177
176 195
177 178
177 196
178 179
178 197
179 180
179 198
180 181
180 199
181 182
181 200
182 183
182 201
183 184
183 202
184 185
184 203
185 186
185 204
186 187
186 205
187 188
187 206
188 189
188 207
189 190
189 208
190 172
190 209
191 192
191 210
192 193
192 211
193 194
193 212
194 195
194 213
195 196
195 214
196 197
196 215
197 198
197 216
198 199
198 217
199 200
199 218
200 201
200 219
201 202
201 220
202 203
202 221
203 204
203 222
204 205
204 223
205 206
205 224
206 207
206 225
207 208
207 226
208 209
208 227
209 191
209 228
210 211
210 229
211 212
211 230
212 213
212 231
213 214
213 232
214 215
214 233
215 216
215 234
216 217
216 235
217 218
217 236
218 219
218 237
219 220
219 238
220 221
220 239
221 222
221 240
222 223
222 241
223 224
223 242
224 225
224 243
225 226
225 244
226 227
226 245
227 228
227 246
228 210
228 247
229 230
229 248
230 231
230 249
231 232
231 250
232 233
232 251
233 234
233 252
234 235
234 253
235 236
235 254
236 237
236 255
237 238
237 256
238 239
238 257
239 240
239 258
240 241
240 259
241 242
241 260
242 243
242 261
243 244
243 262
244 245
244 263
245 246
245 264
246 247
246 265
247 229
247 266
248 249
248 267
249 250
249 268
250 251
250 269
251 252
251 270
252 253
252 271
253 254
253 272
254 255
254 273
255 256
255 274
256 257
256 275
257 258
257 276
258 259
258 277
259 260
259 278
260 261
260 279
261 262
261 280
262 263
262 281
263 264
263 282
264 265
264 283
265 266
265 284
266 248
266 285
267 268
267 286
268 269
268 287
269 270
269 288
270 271
270 289
271 272
271 290
272 273
272 291
273 274
273 292
274 275
274 293
275 276
275 294
276 277
276 295
277 278
277 296
278 279
278 297
279 280
279 298
280 281
280 299
281 282
281 300
282 283
282 301
283 284
283 302
284 285
284 303
285 267
285 304
286 287
286 305
287 288
287 306
288 289
288 307
289 290
289 308
290 291
290 309
291 292
291 310
292 293
292 311
293 294
293 312
294 295
294 313
295 296
295 314
296 297
296 315
297 298
297 316
298 299
298 317
299 300
299 318
300 301
300 319
301 302
301 320
302 303
302 321
303 304
303 322
304 286
304 323
305 306
305 324
306 307
306 325
307 308
307 326
308 309
308 327
309 310
309 328
310 311
310 329
311 312
311 330
312 313
312 331
313 314
313 332
314 315
314 333
315 316
315 334
316 317
316 335
317 318
317 336
318 319
318 337
319 320
319 338
320 321
320 339
321 322
321 340
322 323
322 341
323 305
323 342
324 325
324 1
325 326
325 2
326 327
326 3
327 328
327 4
328 329
328 5
329 330
329 6
330 331
330 7
331 332
331 8
332 333
332 9
333 334
333 10
334 335
334 11
335 336
335 12
336 337
336 13
337 338
337 14
338 339
338 15
339 340
339 16
340 341
340 17
341 342
341 18
342 324
342 19
